
630.0
630.0
630.0
840.0
810.0
750.0
630.0
780.0
780.0
870.0
630.0
1020.0
630.0
840.0
870.0
900.0
840.0
630.0
630.0
630.0
1020.0
1020.0
900.0
990.0
840.0
630.0
750.0
1020.0
900.0
1020.0
630.0
1110.0
960.0
870.0
780.0
960.0
1080.0
690.0
870.0
1170.0
630.0
630.0
810.0
630.0
750.0
840.0
930.0
630.0
630.0
990.0